(set-logic QF_SLAH)

(declare-datatypes ((data_t 0)) (((c_data_t (sz Int)))))

(declare-heap (Int data_t))

(define-fun hck ((?x Int) (?y Int) (?v Int)) Bool
	(and
		(>= (- ?y ?x) 2) (<= (- ?y ?x) ?v)
		(sep (pto ?x (c_data_t (- ?y ?x))) (blk (+ ?x 1) ?y))
))

(define-fun-rec hls ((?x Int) (?y Int) (?v Int)) Bool
	(or
		(and (= ?x ?y) (_ emp Int data_t))
		(exists ((?w Int)) (sep (hck ?x ?w ?v) (hls ?w ?y ?v)))
))

(declare-const x0 Int)
(declare-const x1 Int)
(declare-const v0 Int)
(declare-const x2 Int)
(declare-const x3 Int)
(declare-const x4 Int)
(declare-const x5 Int)
(declare-const x6 Int)
(declare-const x7 Int)
(declare-const v6 Int)
(declare-const x8 Int)
(declare-const x9 Int)
(declare-const x10 Int)
(declare-const x11 Int)
(declare-const x12 Int)
(declare-const x13 Int)
(declare-const x14 Int)
(declare-const x15 Int)
(declare-const x16 Int)
(declare-const x17 Int)
(declare-const x18 Int)
(declare-const x19 Int)
(declare-const x20 Int)
(declare-const x21 Int)
(declare-const v20 Int)
(declare-const x22 Int)
(declare-const x23 Int)
(declare-const v22 Int)
(declare-const x24 Int)
(declare-const x25 Int)
(declare-const v24 Int)
(declare-const x26 Int)
(declare-const x27 Int)
(declare-const x28 Int)
(declare-const x29 Int)
(declare-const v28 Int)
(declare-const x30 Int)
(declare-const x31 Int)
(declare-const v30 Int)
(declare-const x32 Int)
(declare-const x33 Int)
(declare-const x34 Int)
(declare-const x35 Int)
(declare-const x36 Int)
(declare-const x37 Int)
(declare-const v36 Int)
(declare-const x38 Int)
(declare-const x39 Int)
(declare-const v38 Int)
(declare-const x40 Int)
(declare-const x41 Int)
(declare-const x42 Int)
(declare-const x43 Int)
(declare-const x44 Int)
(declare-const x45 Int)
(declare-const x46 Int)
(declare-const x47 Int)
(declare-const x48 Int)
(declare-const x49 Int)
(declare-const v48 Int)
(declare-const x50 Int)
(declare-const x51 Int)
(declare-const v50 Int)
(declare-const x52 Int)
(declare-const x53 Int)
(declare-const v52 Int)
(declare-const x54 Int)
(declare-const x55 Int)
(declare-const x56 Int)
(declare-const x57 Int)
(declare-const x58 Int)
(declare-const x59 Int)
(declare-const x60 Int)
(declare-const x61 Int)
(declare-const x62 Int)
(declare-const x63 Int)
(declare-const v62 Int)
(declare-const x64 Int)
(declare-const x65 Int)
(declare-const x66 Int)
(declare-const x67 Int)
(declare-const v66 Int)
(declare-const x68 Int)
(declare-const x69 Int)
(declare-const x70 Int)
(declare-const x71 Int)
(declare-const x72 Int)
(declare-const x73 Int)
(declare-const x74 Int)
(declare-const x75 Int)
(declare-const v74 Int)
(declare-const x76 Int)
(declare-const x77 Int)
(declare-const v76 Int)
(declare-const x78 Int)
(declare-const x79 Int)
(declare-const v78 Int)
(declare-const x80 Int)
(declare-const x81 Int)
(declare-const x82 Int)
(declare-const x83 Int)
(declare-const x84 Int)
(declare-const x85 Int)
(declare-const v84 Int)
(declare-const x86 Int)
(declare-const x87 Int)
(declare-const v86 Int)
(declare-const x88 Int)
(declare-const x89 Int)
(declare-const x90 Int)
(declare-const x91 Int)
(declare-const x92 Int)
(declare-const x93 Int)
(declare-const v92 Int)
(declare-const x94 Int)
(declare-const x95 Int)
(declare-const x96 Int)
(declare-const x97 Int)
(declare-const x98 Int)
(declare-const x99 Int)
(declare-const v98 Int)
(declare-const x100 Int)
(declare-const x101 Int)
(declare-const v100 Int)
(declare-const x102 Int)
(declare-const x103 Int)
(declare-const x104 Int)
(declare-const x105 Int)
(declare-const x106 Int)
(declare-const x107 Int)
(declare-const v106 Int)
(declare-const x108 Int)
(declare-const x109 Int)
(declare-const x110 Int)
(declare-const x111 Int)
(declare-const v110 Int)
(declare-const x112 Int)
(declare-const x113 Int)
(declare-const v112 Int)
(declare-const x114 Int)
(declare-const x115 Int)
(declare-const v114 Int)
(declare-const x116 Int)
(declare-const x117 Int)
(declare-const x118 Int)
(declare-const x119 Int)
(declare-const v118 Int)
(declare-const x120 Int)
(declare-const x121 Int)
(declare-const x122 Int)
(declare-const x123 Int)
(declare-const x124 Int)
(declare-const x125 Int)
(declare-const x126 Int)
(declare-const x127 Int)
(declare-const x128 Int)
(declare-const x129 Int)
(declare-const x130 Int)
(declare-const x131 Int)
(declare-const x132 Int)
(declare-const x133 Int)
(declare-const x134 Int)
(declare-const x135 Int)
(declare-const x136 Int)
(declare-const x137 Int)
(declare-const x138 Int)
(declare-const x139 Int)
(declare-const x140 Int)
(declare-const x141 Int)
(declare-const x142 Int)
(declare-const x143 Int)
(declare-const x144 Int)
(declare-const x145 Int)
(declare-const x146 Int)
(declare-const x147 Int)
(declare-const x148 Int)
(declare-const x149 Int)
(declare-const x150 Int)
(declare-const x151 Int)
(declare-const v150 Int)
(declare-const x152 Int)
(declare-const x153 Int)
(declare-const x154 Int)
(declare-const x155 Int)
(declare-const v154 Int)
(declare-const x156 Int)
(declare-const x157 Int)
(declare-const x158 Int)
(declare-const x159 Int)
(declare-const v158 Int)

(assert(and
(distinct x153 x10) (distinct x26 x108) (< x43 x154) (< x150 x45) (= x7 x28) (< x138 x27) (< x72 x27) (= x100 x74) (distinct x127 x102) (= x13 x21) (distinct x90 x119) (distinct x141 x32) (= x129 x57) (= x81 x95) (< x19 x19) (distinct x155 x152) (distinct x107 x99) (< x19 x113) (< x22 x127) 
(sep
(hls x0 x1 v0)
(pto x2 (c_data_t x3))
(pto x4 (c_data_t x5))
(hls x6 x7 v6)
(pto x8 (c_data_t x9))
(pto x10 (c_data_t x11))
(pto x12 (c_data_t x13))
(pto x14 (c_data_t x15))
(pto x16 (c_data_t x17))
(pto x18 (c_data_t x19))
(hls x20 x21 v20)
(hls x22 x23 v22)
(hls x24 x25 v24)
(pto x26 (c_data_t x27))
(hls x28 x29 v28)
(hls x30 x31 v30)
(pto x32 (c_data_t x33))
(blk x34 x35)
(hls x36 x37 v36)
(hls x38 x39 v38)
(pto x40 (c_data_t x41))
(blk x42 x43)
(blk x44 x45)
(blk x46 x47)
(hls x48 x49 v48)
(hls x50 x51 v50)
(hls x52 x53 v52)
(blk x54 x55)
(pto x56 (c_data_t x57))
(pto x58 (c_data_t x59))
(blk x60 x61)
(hls x62 x63 v62)
(pto x64 (c_data_t x65))
(hls x66 x67 v66)
(pto x68 (c_data_t x69))
(blk x70 x71)
(blk x72 x73)
(hls x74 x75 v74)
(hls x76 x77 v76)
(hls x78 x79 v78)
(pto x80 (c_data_t x81))
(blk x82 x83)
(hls x84 x85 v84)
(hls x86 x87 v86)
(pto x88 (c_data_t x89))
(blk x90 x91)
(hls x92 x93 v92)
(blk x94 x95)
(pto x96 (c_data_t x97))
(hls x98 x99 v98)
(hls x100 x101 v100)
(pto x102 (c_data_t x103))
(blk x104 x105)
(hls x106 x107 v106)
(pto x108 (c_data_t x109))
(hls x110 x111 v110)
(hls x112 x113 v112)
(hls x114 x115 v114)
(pto x116 (c_data_t x117))
(hls x118 x119 v118)
(blk x120 x121)
(blk x122 x123)
(blk x124 x125)
(pto x126 (c_data_t x127))
(pto x128 (c_data_t x129))
(blk x130 x131)
(pto x132 (c_data_t x133))
(blk x134 x135)
(pto x136 (c_data_t x137))
(blk x138 x139)
(pto x140 (c_data_t x141))
(blk x142 x143)
(pto x144 (c_data_t x145))
(pto x146 (c_data_t x147))
(pto x148 (c_data_t x149))
(hls x150 x151 v150)
(pto x152 (c_data_t x153))
(hls x154 x155 v154)
(pto x156 (c_data_t x157))
(hls x158 x159 v158)
)))

(check-sat)